
Log started (V11.0.0) Thu May 15 21:23:19 2008

Tried aggregator 1 time.
Reduced MIP has 220 rows, 4001 columns, and 8020 nonzeros.
Presolve time =    0.03 sec.
Clique table members: 200.
MIP emphasis: balance optimality and feasibility.
MIP search method: dynamic search.
Parallel mode: none, using 1 thread.
Root relaxation solution time =    0.12 sec.

        Nodes                                         Cuts/
   Node  Left     Objective  IInf  Best Integer     Best Node    ItCnt     Gap

*     0+    0                        22151.0000     1005.4908      386   95.46%
*     0+    0                         1013.0000     1005.4908      386    0.74%
      0     0     1006.0000    39     1013.0000      Fract: 6      429    0.69%
      0     0     1006.0000    41     1013.0000     Covers: 1      442    0.69%
      0     0     1006.0000    36     1013.0000     Covers: 1      453    0.69%
*     0+    0                         1012.0000     1006.0000      453    0.59%
      0     0     1006.0000    40     1012.0000     Covers: 2      469    0.59%
      0     2     1006.0000    40     1012.0000     1006.0000      469    0.59%
    100   101     1007.0000    28     1012.0000     1006.0000     2617    0.59%
*   200+  181                         1011.0000     1006.0000     7280    0.49%
    200   183     1006.0000    38     1011.0000     1006.0000     7280    0.49%
    300   254     1007.0000    36     1011.0000     1006.0000     9335    0.49%
    400   298     1009.0000    36     1011.0000     1006.0000    12326    0.49%
    500   342     1009.0000    37     1011.0000     1006.0000    15941    0.49%
*   513+  228                         1010.0000     1007.0000    17671    0.30%
    600   208     1008.0000    35     1010.0000     1007.0000    19061    0.30%
    700   156     1009.0000    32     1010.0000     1007.0000    20956    0.30%
    800   149     1008.0000    26     1010.0000     1007.0000    23432    0.30%
    900   139     1008.0000    32     1010.0000     1007.0000    25934    0.30%
   1000   154     1008.0000    24     1010.0000     1007.0000    27212    0.30%
Elapsed time =  16.49 sec. (tree size =  0.60 MB, solutions = 5)
   1100   230     1008.0000    39     1010.0000     1007.0000    30409    0.30%
   1200   295    infeasible           1010.0000     1007.0000    37632    0.30%
   1300   336     1008.0311    42     1010.0000     1008.0000    41126    0.20%
   1400   376     1009.0000    38     1010.0000     1008.0000    56167    0.20%
   1500   466     1008.0000    28     1010.0000     1008.0000    58171    0.20%
   1600   563     1008.0000    42     1010.0000     1008.0000    61465    0.20%
   1700   642     1008.0000    41     1010.0000     1008.0000    64344    0.20%
*  1713+  495                         1009.0000     1008.0000    64584    0.10%
   1800   546     1008.0000    30     1009.0000     1008.0000    67268    0.10%
   1900   604     1008.0000    38     1009.0000     1008.0000    70553    0.10%
   2000   668        cutoff           1009.0000     1008.0000    72826    0.10%
Elapsed time =  29.31 sec. (tree size =  2.88 MB, solutions = 6)
   2100   756     1008.0000    37     1009.0000     1008.0000    74920    0.10%
   2200   834     1008.0000    29     1009.0000     1008.0000    78705    0.10%
   2300   898     1008.0000    41     1009.0000     1008.0000    82914    0.10%
   2400   972     1008.0000    48     1009.0000     1008.0000    88711    0.10%
   2500  1046     1008.0000    58     1009.0000     1008.0000    97583    0.10%
   2600  1121     1008.0000    37     1009.0000     1008.0000   102117    0.10%
   2700  1204     1008.0000    40     1009.0000     1008.0000   107389    0.10%
   2800  1271     1008.0000    45     1009.0000     1008.0000   113380    0.10%
   2900  1359     1008.0000    33     1009.0000     1008.0000   117793    0.10%
   3000  1440     1008.0000    46     1009.0000     1008.0000   124984    0.10%
Elapsed time =  44.70 sec. (tree size =  6.97 MB, solutions = 6)
   3100  1520     1008.0000    39     1009.0000     1008.0000   132057    0.10%
   3200  1579     1008.0000    39     1009.0000     1008.0000   139562    0.10%
   3300  1673        cutoff           1009.0000     1008.0000   142612    0.10%
   3400  1769     1008.0000    43     1009.0000     1008.0000   148110    0.10%
   3500  1836     1008.0000    44     1009.0000     1008.0000   159849    0.10%
   3600  1906     1008.0000    39     1009.0000     1008.0000   170248    0.10%
   3700  1972     1008.0000    38     1009.0000     1008.0000   174431    0.10%
   3800  2060     1008.0000    42     1009.0000     1008.0000   178618    0.10%
   3900  2104     1008.0000    47     1009.0000     1008.0000   187937    0.10%
   4000  2182     1008.0000    38     1009.0000     1008.0000   194919    0.10%
Elapsed time =  67.02 sec. (tree size = 11.48 MB, solutions = 6)
   4100  2260     1008.0000    50     1009.0000     1008.0000   199921    0.10%
   4200  2334     1008.0000    32     1009.0000     1008.0000   206354    0.10%
   4300  2425     1008.0000    43     1009.0000     1008.0000   212174    0.10%
   4400  2517     1008.0000    39     1009.0000     1008.0000   216732    0.10%
   4500  2597     1008.0000    45     1009.0000     1008.0000   223682    0.10%
   4600  2667     1008.0000    36     1009.0000     1008.0000   231648    0.10%
   4700  2747     1008.0000    38     1009.0000     1008.0000   239078    0.10%
   4800  2813        cutoff           1009.0000     1008.0000   250968    0.10%
   4900  2861        cutoff           1009.0000     1008.0000   259535    0.10%
   5000  2945     1008.0000    63     1009.0000     1008.0000   263698    0.10%
Elapsed time =  89.38 sec. (tree size = 16.81 MB, solutions = 6)
   5100  3045     1008.0000    33     1009.0000     1008.0000   268965    0.10%
   5200  3135     1008.0000    46     1009.0000     1008.0000   281939    0.10%
   5300  3207     1008.0000    52     1009.0000     1008.0000   297279    0.10%
   5400  3287     1008.0000    24     1009.0000     1008.0000   312252    0.10%
   5500  3351        cutoff           1009.0000     1008.0000   328740    0.10%
   5600  3407     1008.0000    46     1009.0000     1008.0000   340818    0.10%
   5700  3467     1008.0000    27     1009.0000     1008.0000   346099    0.10%
   5800  3559     1008.0000    44     1009.0000     1008.0000   355371    0.10%
   5900  3645        cutoff           1009.0000     1008.0000   367137    0.10%
   6000  3739     1008.0000    27     1009.0000     1008.0000   380789    0.10%
Elapsed time = 124.89 sec. (tree size = 22.77 MB, solutions = 6)
   6100  3815     1008.0000    28     1009.0000     1008.0000   396677    0.10%
   6200  3887        cutoff           1009.0000     1008.0000   408384    0.10%
   6300  3947     1008.0000    31     1009.0000     1008.0000   418204    0.10%
   6400  4003     1008.0000    42     1009.0000     1008.0000   437035    0.10%
   6500  4057     1008.0000    36     1009.0000     1008.0000   446194    0.10%
   6600  4135     1008.0000    56     1009.0000     1008.0000   452002    0.10%
   6700  4197        cutoff           1009.0000     1008.0000   466749    0.10%
   6800  4265     1008.0000    21     1009.0000     1008.0000   472501    0.10%
   6900  4364     1008.0000    19     1009.0000     1008.0000   473995    0.10%
   7000  4430     1008.0000    47     1009.0000     1008.0000   485391    0.10%
Elapsed time = 156.36 sec. (tree size = 28.25 MB, solutions = 6)
   7100  4460        cutoff           1009.0000     1008.0000   503389    0.10%
   7200  4490     1008.0000    57     1009.0000     1008.0000   522735    0.10%
   7300  4533     1008.0000    38     1009.0000     1008.0000   536894    0.10%
   7400  4569     1008.0000    46     1009.0000     1008.0000   556936    0.10%
*  7413+    2                         1008.0000     1008.0000   558705    0.00%

Cover cuts applied:  368
Mixed integer rounding cuts applied:  5
Gomory fractional cuts applied:  3

Solution pool: 7 solutions saved.

MIP - Integer optimal solution:  Objective = 1.0080000000e+003
Solution time =  176.74 sec.  Iterations = 558705  Nodes = 7413


Incumbent solution
Variable Name           Solution Value
Cmax                       1008.000000
X_1_13                        1.000000
X_2_16                        1.000000
X_3_1                         1.000000
X_4_5                         1.000000
X_5_17                        1.000000
X_6_13                        1.000000
X_7_7                         1.000000
X_8_1                         1.000000
X_9_19                        1.000000
X_10_4                        1.000000
X_11_4                        1.000000
X_12_11                       1.000000
X_13_5                        1.000000
X_14_19                       1.000000
X_15_1                        1.000000
X_16_8                        1.000000
X_17_18                       1.000000
X_18_1                        1.000000
X_19_18                       1.000000
X_20_11                       1.000000
X_21_13                       1.000000
X_22_17                       1.000000
X_23_6                        1.000000
X_24_19                       1.000000
X_25_20                       1.000000
X_26_6                        1.000000
X_27_15                       1.000000
X_28_15                       1.000000
X_29_20                       1.000000
X_30_4                        1.000000
X_31_9                        1.000000
X_32_20                       1.000000
X_33_10                       1.000000
X_34_19                       1.000000
X_35_16                       1.000000
X_36_15                       1.000000
X_37_14                       1.000000
X_38_11                       1.000000
X_39_13                       1.000000
X_40_16                       1.000000
X_41_11                       1.000000
X_42_9                        1.000000
X_43_8                        1.000000
X_44_6                        1.000000
X_45_5                        1.000000
X_46_15                       1.000000
X_47_3                        1.000000
X_48_13                       1.000000
X_49_6                        1.000000
X_50_5                        1.000000
X_51_5                        1.000000
X_52_20                       1.000000
X_53_10                       1.000000
X_54_11                       1.000000
X_55_7                        1.000000
X_56_7                        1.000000
X_57_16                       1.000000
X_58_14                       1.000000
X_59_1                        1.000000
X_60_6                        1.000000
X_61_17                       1.000000
X_62_16                       1.000000
X_63_11                       1.000000
X_64_2                        1.000000
X_65_6                        1.000000
X_66_11                       1.000000
X_67_5                        1.000000
X_68_3                        1.000000
X_69_17                       1.000000
X_70_10                       1.000000
X_71_2                        1.000000
X_72_13                       1.000000
X_73_9                        1.000000
X_74_3                        1.000000
X_75_18                       1.000000
X_76_16                       1.000000
X_77_6                        1.000000
X_78_8                        1.000000
X_79_20                       1.000000
X_80_3                        1.000000
X_81_18                       1.000000
X_82_9                        1.000000
X_83_15                       1.000000
X_84_2                        1.000000
X_85_8                        1.000000
X_86_14                       1.000000
X_87_19                       1.000000
X_88_20                       1.000000
X_89_7                        1.000000
X_90_11                       1.000000
X_91_9                        1.000000
X_92_13                       1.000000
X_93_15                       1.000000
X_94_13                       1.000000
X_95_5                        1.000000
X_96_18                       1.000000
X_97_9                        1.000000
X_98_15                       1.000000
X_99_4                        1.000000
X_100_18                      1.000000
X_101_19                      1.000000
X_102_10                      1.000000
X_103_14                      1.000000
X_104_18                      1.000000
X_105_17                      1.000000
X_106_12                      1.000000
X_107_1                       1.000000
X_108_17                      1.000000
X_109_14                      1.000000
X_110_14                      1.000000
X_111_3                       1.000000
X_112_14                      1.000000
X_113_7                       1.000000
X_114_4                       1.000000
X_115_17                      1.000000
X_116_2                       1.000000
X_117_12                      1.000000
X_118_15                      1.000000
X_119_4                       1.000000
X_120_14                      1.000000
X_121_4                       1.000000
X_122_4                       1.000000
X_123_10                      1.000000
X_124_2                       1.000000
X_125_12                      1.000000
X_126_2                       1.000000
X_127_2                       1.000000
X_128_8                       1.000000
X_129_11                      1.000000
X_130_10                      1.000000
X_131_16                      1.000000
X_132_4                       1.000000
X_133_17                      1.000000
X_134_6                       1.000000
X_135_18                      1.000000
X_136_3                       1.000000
X_137_9                       1.000000
X_138_20                      1.000000
X_139_2                       1.000000
X_140_8                       1.000000
X_141_14                      1.000000
X_142_12                      1.000000
X_143_3                       1.000000
X_144_6                       1.000000
X_145_9                       1.000000
X_146_14                      1.000000
X_147_2                       1.000000
X_148_6                       1.000000
X_149_7                       1.000000
X_150_19                      1.000000
X_151_1                       1.000000
X_152_18                      1.000000
X_153_10                      1.000000
X_154_10                      1.000000
X_155_20                      1.000000
X_156_13                      1.000000
X_157_1                       1.000000
X_158_9                       1.000000
X_159_12                      1.000000
X_160_20                      1.000000
X_161_7                       1.000000
X_162_19                      1.000000
X_163_15                      1.000000
X_164_10                      1.000000
X_165_12                      1.000000
X_166_16                      1.000000
X_167_7                       1.000000
X_168_8                       1.000000
X_169_4                       1.000000
X_170_7                       1.000000
X_171_19                      1.000000
X_172_3                       1.000000
X_173_8                       1.000000
X_174_5                       1.000000
X_175_13                      1.000000
X_176_12                      1.000000
X_177_1                       1.000000
X_178_8                       1.000000
X_179_12                      1.000000
X_180_3                       1.000000
X_181_1                       1.000000
X_182_9                       1.000000
X_183_19                      1.000000
X_184_16                      1.000000
X_185_7                       1.000000
X_186_5                       1.000000
X_187_17                      1.000000
X_188_10                      1.000000
X_189_18                      1.000000
X_190_20                      1.000000
X_191_5                       1.000000
X_192_17                      1.000000
X_193_8                       1.000000
X_194_3                       1.000000
X_195_11                      1.000000
X_196_2                       1.000000
X_197_12                      1.000000
X_198_15                      1.000000
X_199_12                      1.000000
X_200_16                      1.000000
All other variables in the range 1-4001 are 0.
